sing20210930.12
TTAA  80111 48698
99008 26418 29506 00097 25820 19008 92784 23045 21519
85517 19248 22525 70166 09441 20518 50588 05504 10008
40761 16546 10527 30972 29729 10514 25100 40133 10019
20248 52739 10021 15426 68150 08045 10661 79950 08545
88114 78944 09091
77116 08593 43558=
TTCC  80113 48698
70869 71758 23512 50070 65160 28519 30384 61959 08556
88999
77999=
TTDD  8011/ 48698
11962 78756 22943 74559 33907 71759 44751 74357 55662 68560
66603 69757 77472 64360 88419 66158 99348 60760 11289 60560
21212 11926 07025 22876 11004 33861 25006 44812 26023 55744
27518 66718 24012 77663 23004 88651 26006 99618 25021 11567
29029 22519 31512 33491 28027 44409 00519 55387 10516 66370
08021 77324 10053 88289 08556=
